\ SCIP STATISTICS
\   Problem name     : SetCover-100-200
\   Variables        : 200 (200 binary, 0 integer, 0 implicit integer, 0 continuous)
\   Constraints      : 100
Minimize
 Obj: +73 x0 +21 x1 +94 x2 +63 x3 +28 x4 +78 x5 +44 x6 +65 x7 +95 x8 +54 x9 +51 x10 +39 x11 +48 x12 +27 x13
      +51 x14 +93 x15 +43 x16 +24 x17 +59 x18 +37 x19 +65 x20 +9 x21 +69 x22 +30 x23 +44 x24 +62 x25 +82 x26
      +56 x27 +13 x28 +40 x29 +62 x30 +78 x31 +46 x32 +55 x33 +23 x34 +53 x35 +44 x36 +6 x37 +78 x38 +57 x39
      +10 x40 +21 x41 +71 x42 +64 x43 +65 x44 +15 x45 +50 x46 +37 x47 +39 x48 +90 x49 +80 x50 +22 x51
      +19 x52 +35 x53 +29 x54 +22 x55 +93 x56 +47 x57 +48 x58 +2 x59 +80 x60 +14 x61 +38 x62 +73 x63 +92 x64
      +33 x65 +42 x66 +65 x67 +2 x68 +23 x69 +72 x70 +55 x71 +87 x72 +1 x73 +53 x74 +28 x75 +42 x76 +40 x77
      +22 x78 +57 x79 +14 x80 +25 x81 +94 x82 +74 x83 +32 x84 +93 x85 +22 x86 +31 x87 +31 x88 +28 x89
      +74 x90 +98 x91 +88 x92 +13 x93 +32 x94 +33 x95 +30 x96 +45 x97 +60 x98 +34 x99 +65 x100 +97 x101
      +93 x102 +82 x103 +100 x104 +90 x105 +89 x106 +90 x107 +6 x108 +84 x109 +17 x110 +99 x111 +39 x112
      +87 x113 +41 x114 +3 x115 +29 x116 +20 x117 +63 x118 +40 x119 +83 x120 +63 x121 +17 x122 +13 x123
      +13 x124 +42 x125 +47 x126 +58 x127 +33 x128 +68 x129 +31 x130 +54 x131 +12 x132 +27 x133 +65 x134
      +36 x135 +11 x136 +43 x137 +9 x138 +32 x139 +80 x140 +93 x141 +33 x142 +1 x143 +69 x144 +13 x145
      +40 x146 +6 x147 +10 x148 +78 x149 +91 x150 +63 x151 +48 x152 +39 x153 +37 x154 +89 x155 +24 x156
      +3 x157 +44 x158 +69 x159 +33 x160 +26 x161 +22 x162 +62 x163 +53 x164 +46 x165 +47 x166 +80 x167
      +82 x168 +23 x169 +83 x170 +67 x171 +79 x172 +5 x173 +52 x174 +12 x175 +60 x176 +15 x177 +15 x178
      +49 x179 +20 x180 +79 x181 +10 x182 +51 x183 +33 x184 +28 x185 +16 x186 +16 x187 +20 x188 +88 x189
      +16 x190 +78 x191 +8 x192 +47 x193 +82 x194 +25 x195 +16 x196 +66 x197 +7 x198 +65 x199
Subject to
 c0: +1 x5 +1 x24 +1 x34 +1 x77 +1 x83 +1 x84 +1 x86 +1 x104 +1 x113 +1 x114 +1 x122 +1 x132 +1 x135 +1 x150
  +1 x153 +1 x155 +1 x158 +1 x164 +1 x182 +1 x185 +1 x195 >= +1
 c1: +1 x8 +1 x13 +1 x18 +1 x29 +1 x48 +1 x78 +1 x79 +1 x81 +1 x91 +1 x93 +1 x105 +1 x107 +1 x109 +1 x118
  +1 x144 +1 x163 >= +1
 c2: +1 x0 +1 x24 +1 x26 +1 x31 +1 x34 +1 x43 +1 x52 +1 x53 +1 x58 +1 x60 +1 x89 +1 x109 +1 x110 +1 x128
  +1 x132 +1 x136 +1 x144 +1 x165 +1 x171 +1 x175 +1 x176 +1 x189 +1 x190 +1 x199 >= +1
 c3: +1 x6 +1 x29 +1 x43 +1 x53 +1 x67 +1 x72 +1 x73 +1 x80 +1 x81 +1 x82 +1 x117 +1 x119 +1 x120 +1 x132
  +1 x155 +1 x190 +1 x194 >= +1
 c4: +1 x5 +1 x22 +1 x26 +1 x31 +1 x41 +1 x61 +1 x63 +1 x64 +1 x77 +1 x80 +1 x81 +1 x108 +1 x126 +1 x130
  +1 x169 +1 x180 >= +1
 c5: +1 x5 +1 x34 +1 x64 +1 x71 +1 x73 +1 x89 +1 x91 +1 x92 +1 x94 +1 x145 +1 x160 +1 x163 +1 x170 +1 x174
  +1 x181 +1 x192 >= +1
 c6: +1 x6 +1 x20 +1 x25 +1 x38 +1 x79 +1 x90 +1 x97 +1 x100 +1 x117 +1 x126 +1 x127 +1 x130 +1 x135 +1 x141
  +1 x147 +1 x170 >= +1
 c7: +1 x5 +1 x17 +1 x30 +1 x34 +1 x47 +1 x54 +1 x82 +1 x92 +1 x97 +1 x112 +1 x131 +1 x160 +1 x163 +1 x176
  >= +1
 c8: +1 x3 +1 x11 +1 x14 +1 x29 +1 x38 +1 x39 +1 x47 +1 x56 +1 x59 +1 x80 +1 x97 +1 x98 +1 x109 +1 x112
  +1 x127 +1 x137 +1 x141 +1 x156 +1 x159 +1 x174 >= +1
 c9: +1 x1 +1 x19 +1 x22 +1 x25 +1 x37 +1 x39 +1 x55 +1 x59 +1 x60 +1 x64 +1 x69 +1 x75 +1 x82 +1 x84
  +1 x92 +1 x110 +1 x112 +1 x116 +1 x138 +1 x151 +1 x160 +1 x161 +1 x182 >= +1
 c10: +1 x1 +1 x37 +1 x38 +1 x55 +1 x84 +1 x95 +1 x101 +1 x102 +1 x119 +1 x130 +1 x136 +1 x138 +1 x143
  +1 x145 +1 x148 +1 x155 +1 x160 +1 x162 +1 x181 +1 x195 >= +1
 c11: +1 x1 +1 x16 +1 x28 +1 x44 +1 x62 +1 x74 +1 x82 +1 x83 +1 x101 +1 x108 +1 x116 +1 x124 +1 x140 +1 x157
  +1 x169 +1 x173 +1 x178 +1 x183 +1 x193 >= +1
 c12: +1 x4 +1 x9 +1 x19 +1 x25 +1 x33 +1 x36 +1 x54 +1 x55 +1 x60 +1 x66 +1 x69 +1 x71 +1 x90 +1 x101
  +1 x119 +1 x129 +1 x152 +1 x161 +1 x175 +1 x183 +1 x185 +1 x197 >= +1
 c13: +1 x2 +1 x11 +1 x20 +1 x21 +1 x31 +1 x44 +1 x77 +1 x84 +1 x86 +1 x102 +1 x104 +1 x111 +1 x113 +1 x120
  +1 x125 +1 x133 +1 x145 +1 x163 +1 x167 >= +1
 c14: +1 x3 +1 x16 +1 x23 +1 x44 +1 x55 +1 x80 +1 x85 +1 x95 +1 x101 +1 x105 +1 x129 +1 x131 +1 x136 +1 x168
  +1 x170 +1 x174 +1 x180 +1 x181 +1 x183 >= +1
 c15: +1 x3 +1 x20 +1 x25 +1 x31 +1 x33 +1 x36 +1 x37 +1 x54 +1 x56 +1 x60 +1 x61 +1 x82 +1 x127 +1 x134
  +1 x140 +1 x146 +1 x148 +1 x171 +1 x176 +1 x178 +1 x187 +1 x190 +1 x193 +1 x198 >= +1
 c16: +1 x6 +1 x23 +1 x45 +1 x51 +1 x53 +1 x66 +1 x68 +1 x92 +1 x95 +1 x108 +1 x109 +1 x120 +1 x133 +1 x136
  +1 x163 +1 x180 +1 x183 +1 x185 +1 x190 +1 x191 +1 x198 +1 x199 >= +1
 c17: +1 x3 +1 x9 +1 x16 +1 x21 +1 x30 +1 x36 +1 x41 +1 x43 +1 x45 +1 x48 +1 x77 +1 x78 +1 x92 +1 x103
  +1 x114 +1 x119 +1 x133 +1 x137 +1 x145 +1 x166 +1 x171 +1 x177 +1 x180 +1 x189 +1 x199 >= +1
 c18: +1 x0 +1 x21 +1 x29 +1 x41 +1 x48 +1 x60 +1 x74 +1 x78 +1 x102 +1 x121 +1 x125 +1 x137 +1 x154 +1 x161
  +1 x173 +1 x191 +1 x192 >= +1
 c19: +1 x3 +1 x10 +1 x15 +1 x30 +1 x33 +1 x37 +1 x69 +1 x70 +1 x98 +1 x101 +1 x106 +1 x113 +1 x134 +1 x136
  +1 x142 +1 x168 +1 x184 +1 x188 +1 x194 +1 x198 >= +1
 c20: +1 x0 +1 x11 +1 x12 +1 x22 +1 x24 +1 x30 +1 x32 +1 x37 +1 x39 +1 x42 +1 x47 +1 x48 +1 x49 +1 x66
  +1 x87 +1 x94 +1 x103 +1 x106 +1 x108 +1 x110 +1 x112 +1 x116 +1 x131 +1 x143 +1 x158 +1 x160 +1 x171
  +1 x178 +1 x186 >= +1
 c21: +1 x2 +1 x10 +1 x17 +1 x23 +1 x41 +1 x69 +1 x112 +1 x114 +1 x120 +1 x122 +1 x124 +1 x132 +1 x136
  +1 x153 +1 x155 +1 x161 +1 x163 +1 x183 >= +1
 c22: +1 x4 +1 x9 +1 x11 +1 x27 +1 x33 +1 x34 +1 x53 +1 x67 +1 x69 +1 x75 +1 x112 +1 x126 +1 x135 +1 x140
  +1 x149 +1 x153 +1 x164 +1 x194 >= +1
 c23: +1 x7 +1 x15 +1 x28 +1 x46 +1 x49 +1 x52 +1 x53 +1 x61 +1 x62 +1 x70 +1 x82 +1 x94 +1 x98 +1 x100
  +1 x101 +1 x119 +1 x124 +1 x147 +1 x172 +1 x179 +1 x183 +1 x191 >= +1
 c24: +1 x8 +1 x13 +1 x16 +1 x25 +1 x26 +1 x27 +1 x28 +1 x31 +1 x34 +1 x37 +1 x41 +1 x56 +1 x72 +1 x73
  +1 x94 +1 x101 +1 x119 +1 x145 +1 x148 +1 x155 +1 x158 +1 x160 +1 x174 +1 x176 +1 x184 +1 x187 +1 x194
  >= +1
 c25: +1 x6 +1 x27 +1 x32 +1 x38 +1 x42 +1 x62 +1 x70 +1 x100 +1 x104 +1 x113 +1 x117 +1 x137 +1 x148
  +1 x149 +1 x156 +1 x159 +1 x160 +1 x168 +1 x170 +1 x193 >= +1
 c26: +1 x3 +1 x11 +1 x15 +1 x21 +1 x23 +1 x26 +1 x33 +1 x35 +1 x38 +1 x52 +1 x58 +1 x59 +1 x62 +1 x63
  +1 x66 +1 x72 +1 x83 +1 x112 +1 x130 +1 x154 +1 x184 +1 x192 +1 x193 >= +1
 c27: +1 x4 +1 x20 +1 x22 +1 x27 +1 x41 +1 x69 +1 x82 +1 x92 +1 x95 +1 x98 +1 x122 +1 x130 +1 x139 +1 x143
  +1 x147 +1 x150 +1 x151 +1 x161 +1 x167 +1 x188 >= +1
 c28: +1 x5 +1 x30 +1 x48 +1 x62 +1 x68 +1 x75 +1 x76 +1 x86 +1 x114 +1 x136 +1 x143 +1 x149 +1 x162 +1 x163
  +1 x169 +1 x170 +1 x171 +1 x172 +1 x176 >= +1
 c29: +1 x6 +1 x24 +1 x27 +1 x34 +1 x57 +1 x69 +1 x77 +1 x86 +1 x87 +1 x93 +1 x108 +1 x119 +1 x126 +1 x131
  +1 x134 +1 x179 +1 x180 +1 x183 >= +1
 c30: +1 x5 +1 x19 +1 x26 +1 x42 +1 x50 +1 x105 +1 x108 +1 x140 +1 x153 +1 x161 +1 x169 +1 x177 +1 x188
  >= +1
 c31: +1 x5 +1 x10 +1 x25 +1 x29 +1 x35 +1 x52 +1 x76 +1 x85 +1 x92 +1 x98 +1 x116 +1 x117 +1 x121 +1 x140
  +1 x142 +1 x153 +1 x154 +1 x160 +1 x168 >= +1
 c32: +1 x3 +1 x57 +1 x66 +1 x68 +1 x73 +1 x83 +1 x96 +1 x103 +1 x104 +1 x111 +1 x116 +1 x132 +1 x134
  +1 x140 +1 x147 +1 x197 +1 x199 >= +1
 c33: +1 x7 +1 x32 +1 x36 +1 x44 +1 x51 +1 x56 +1 x60 +1 x69 +1 x77 +1 x79 +1 x85 +1 x86 +1 x100 +1 x101
  +1 x115 +1 x118 +1 x123 +1 x131 +1 x138 +1 x142 +1 x155 +1 x159 +1 x175 +1 x180 +1 x196 >= +1
 c34: +1 x7 +1 x9 +1 x12 +1 x27 +1 x57 +1 x59 +1 x63 +1 x65 +1 x71 +1 x78 +1 x97 +1 x105 +1 x109 +1 x113
  +1 x114 +1 x121 +1 x131 +1 x133 +1 x162 +1 x165 +1 x182 +1 x185 +1 x188 +1 x190 +1 x197 >= +1
 c35: +1 x5 +1 x9 +1 x22 +1 x27 +1 x30 +1 x42 +1 x43 +1 x44 +1 x61 +1 x71 +1 x84 +1 x108 +1 x120 +1 x124
  +1 x129 +1 x132 +1 x134 +1 x140 +1 x153 +1 x156 +1 x157 +1 x166 +1 x184 +1 x187 +1 x195 >= +1
 c36: +1 x1 +1 x9 +1 x10 +1 x22 +1 x25 +1 x33 +1 x68 +1 x76 +1 x99 +1 x101 +1 x102 +1 x109 +1 x118 +1 x121
  +1 x135 +1 x140 +1 x162 +1 x165 +1 x166 +1 x174 >= +1
 c37: +1 x5 +1 x24 +1 x33 +1 x40 +1 x51 +1 x56 +1 x66 +1 x74 +1 x75 +1 x82 +1 x102 +1 x113 +1 x119 +1 x125
  +1 x127 +1 x128 +1 x133 +1 x138 +1 x145 +1 x161 +1 x166 +1 x181 >= +1
 c38: +1 x0 +1 x25 +1 x34 +1 x61 +1 x68 +1 x82 +1 x92 +1 x95 +1 x135 +1 x139 +1 x141 +1 x154 +1 x160 +1 x180
  +1 x184 +1 x193 +1 x198 >= +1
 c39: +1 x2 +1 x11 +1 x19 +1 x22 +1 x23 +1 x26 +1 x29 +1 x38 +1 x39 +1 x72 +1 x90 +1 x93 +1 x108 +1 x109
  +1 x114 +1 x126 +1 x129 +1 x131 +1 x154 +1 x159 +1 x165 +1 x169 >= +1
 c40: +1 x8 +1 x40 +1 x48 +1 x50 +1 x54 +1 x56 +1 x64 +1 x67 +1 x72 +1 x87 +1 x109 +1 x117 +1 x119 +1 x123
  +1 x137 +1 x139 +1 x146 +1 x159 +1 x197 >= +1
 c41: +1 x2 +1 x11 +1 x12 +1 x24 +1 x36 +1 x69 +1 x84 +1 x90 +1 x98 +1 x121 +1 x129 +1 x133 +1 x151 +1 x154
  +1 x158 +1 x196 >= +1
 c42: +1 x5 +1 x14 +1 x15 +1 x18 +1 x71 +1 x82 +1 x98 +1 x104 +1 x106 +1 x108 +1 x112 +1 x119 +1 x139
  +1 x154 +1 x163 +1 x181 +1 x198 >= +1
 c43: +1 x6 +1 x55 +1 x56 +1 x85 +1 x91 +1 x94 +1 x97 +1 x109 +1 x118 +1 x129 +1 x150 +1 x184 >= +1
 c44: +1 x0 +1 x21 +1 x26 +1 x37 +1 x39 +1 x49 +1 x51 +1 x66 +1 x67 +1 x73 +1 x106 +1 x109 +1 x114 +1 x135
  +1 x138 +1 x160 +1 x162 +1 x167 +1 x177 +1 x181 +1 x184 +1 x192 +1 x196 >= +1
 c45: +1 x7 +1 x13 +1 x15 +1 x33 +1 x35 +1 x40 +1 x57 +1 x60 +1 x65 +1 x71 +1 x72 +1 x91 +1 x117 +1 x133
  +1 x138 +1 x145 +1 x166 +1 x175 +1 x191 +1 x196 +1 x199 >= +1
 c46: +1 x4 +1 x11 +1 x19 +1 x32 +1 x35 +1 x50 +1 x55 +1 x59 +1 x89 +1 x126 +1 x131 +1 x134 +1 x137 +1 x138
  +1 x144 +1 x154 +1 x156 +1 x160 +1 x166 +1 x169 +1 x173 +1 x176 >= +1
 c47: +1 x8 +1 x21 +1 x22 +1 x30 +1 x60 +1 x64 +1 x68 +1 x86 +1 x92 +1 x103 +1 x115 +1 x117 +1 x127 +1 x129
  +1 x149 +1 x150 +1 x154 +1 x156 +1 x174 +1 x181 +1 x192 >= +1
 c48: +1 x5 +1 x19 +1 x21 +1 x36 +1 x41 +1 x54 +1 x67 +1 x69 +1 x78 +1 x99 +1 x103 +1 x115 +1 x125 +1 x153
  +1 x155 +1 x175 +1 x184 +1 x187 >= +1
 c49: +1 x0 +1 x11 +1 x26 +1 x32 +1 x46 +1 x53 +1 x57 +1 x58 +1 x62 +1 x71 +1 x81 +1 x106 +1 x110 +1 x113
  +1 x126 +1 x149 +1 x163 +1 x189 +1 x191 >= +1
 c50: +1 x8 +1 x9 +1 x15 +1 x16 +1 x32 +1 x57 +1 x86 +1 x88 +1 x89 +1 x109 +1 x154 +1 x176 +1 x185 >= +1
 c51: +1 x5 +1 x12 +1 x33 +1 x40 +1 x52 +1 x55 +1 x64 +1 x67 +1 x71 +1 x88 +1 x92 +1 x96 +1 x107 +1 x114
  +1 x117 +1 x128 +1 x129 +1 x150 +1 x152 +1 x159 +1 x176 +1 x198 >= +1
 c52: +1 x6 +1 x50 +1 x52 +1 x58 +1 x65 +1 x71 +1 x101 +1 x103 +1 x107 +1 x114 +1 x121 +1 x133 +1 x141
  +1 x157 +1 x159 +1 x175 +1 x180 +1 x185 +1 x187 >= +1
 c53: +1 x6 +1 x12 +1 x15 +1 x22 +1 x25 +1 x30 +1 x57 +1 x61 +1 x75 +1 x76 +1 x91 +1 x93 +1 x103 +1 x107
  +1 x120 +1 x126 +1 x136 +1 x139 +1 x157 +1 x178 +1 x180 +1 x198 >= +1
 c54: +1 x7 +1 x23 +1 x30 +1 x34 +1 x42 +1 x53 +1 x55 +1 x61 +1 x63 +1 x70 +1 x73 +1 x76 +1 x85 +1 x99
  +1 x109 +1 x110 +1 x115 +1 x122 +1 x127 +1 x143 +1 x166 +1 x174 +1 x177 +1 x188 +1 x197 >= +1
 c55: +1 x2 +1 x10 +1 x11 +1 x35 +1 x42 +1 x48 +1 x57 +1 x74 +1 x83 +1 x89 +1 x91 +1 x100 +1 x113 +1 x135
  +1 x143 +1 x146 +1 x163 +1 x168 +1 x176 +1 x177 +1 x179 +1 x196 >= +1
 c56: +1 x4 +1 x12 +1 x22 +1 x37 +1 x40 +1 x44 +1 x46 +1 x60 +1 x72 +1 x97 +1 x104 +1 x114 +1 x118 +1 x123
  +1 x126 +1 x128 +1 x144 +1 x163 +1 x165 +1 x167 +1 x168 +1 x169 +1 x196 >= +1
 c57: +1 x1 +1 x12 +1 x13 +1 x23 +1 x37 +1 x51 +1 x53 +1 x112 +1 x126 +1 x130 +1 x140 +1 x146 +1 x147
  +1 x155 +1 x183 +1 x188 +1 x190 +1 x193 >= +1
 c58: +1 x6 +1 x13 +1 x17 +1 x28 +1 x29 +1 x41 +1 x50 +1 x67 +1 x97 +1 x103 +1 x105 +1 x125 +1 x128 +1 x135
  +1 x138 +1 x141 +1 x144 +1 x153 +1 x162 +1 x186 +1 x190 +1 x193 +1 x194 >= +1
 c59: +1 x5 +1 x10 +1 x17 +1 x23 +1 x25 +1 x26 +1 x47 +1 x51 +1 x68 +1 x69 +1 x77 +1 x95 +1 x120 +1 x121
  +1 x128 +1 x140 +1 x150 +1 x156 +1 x157 +1 x161 +1 x189 +1 x190 +1 x191 +1 x197 >= +1
 c60: +1 x6 +1 x31 +1 x40 +1 x41 +1 x42 +1 x49 +1 x63 +1 x72 +1 x74 +1 x93 +1 x103 +1 x121 +1 x133 +1 x145
  +1 x160 +1 x181 +1 x185 +1 x186 +1 x194 +1 x195 +1 x199 >= +1
 c61: +1 x5 +1 x29 +1 x42 +1 x46 +1 x47 +1 x63 +1 x76 +1 x95 +1 x109 +1 x115 +1 x117 +1 x119 +1 x124 +1 x131
  +1 x140 +1 x158 +1 x162 +1 x171 +1 x178 +1 x180 +1 x191 >= +1
 c62: +1 x7 +1 x14 +1 x34 +1 x41 +1 x77 +1 x90 +1 x92 +1 x98 +1 x108 +1 x120 +1 x124 +1 x137 +1 x140 +1 x151
  +1 x153 +1 x160 +1 x172 +1 x178 +1 x190 +1 x191 >= +1
 c63: +1 x4 +1 x24 +1 x25 +1 x31 +1 x62 +1 x65 +1 x66 +1 x70 +1 x80 +1 x96 +1 x136 +1 x138 +1 x144 +1 x150
  +1 x181 +1 x182 +1 x183 +1 x198 >= +1
 c64: +1 x1 +1 x30 +1 x44 +1 x45 +1 x46 +1 x50 +1 x55 +1 x70 +1 x78 +1 x84 +1 x118 +1 x142 +1 x144 +1 x149
  +1 x153 +1 x171 +1 x176 +1 x177 +1 x182 +1 x194 >= +1
 c65: +1 x4 +1 x50 +1 x59 +1 x68 +1 x71 +1 x96 +1 x101 +1 x123 +1 x139 +1 x167 +1 x169 +1 x171 +1 x181
  +1 x198 >= +1
 c66: +1 x8 +1 x16 +1 x31 +1 x33 +1 x47 +1 x68 +1 x70 +1 x74 +1 x82 +1 x109 +1 x121 +1 x125 +1 x167 +1 x184
  +1 x192 >= +1
 c67: +1 x4 +1 x9 +1 x16 +1 x20 +1 x22 +1 x28 +1 x36 +1 x38 +1 x44 +1 x58 +1 x79 +1 x130 +1 x135 +1 x140
  +1 x141 +1 x162 +1 x196 >= +1
 c68: +1 x5 +1 x32 +1 x56 +1 x60 +1 x64 +1 x70 +1 x74 +1 x106 +1 x109 +1 x112 +1 x130 +1 x136 +1 x140
  +1 x146 +1 x148 +1 x154 +1 x166 +1 x175 +1 x180 +1 x199 >= +1
 c69: +1 x1 +1 x30 +1 x47 +1 x65 +1 x82 +1 x83 +1 x95 +1 x123 +1 x135 +1 x150 +1 x151 +1 x170 +1 x179
  +1 x182 >= +1
 c70: +1 x1 +1 x11 +1 x17 +1 x19 +1 x21 +1 x30 +1 x36 +1 x48 +1 x75 +1 x76 +1 x86 +1 x89 +1 x91 +1 x97
  +1 x114 +1 x139 +1 x142 +1 x144 +1 x148 +1 x152 +1 x155 +1 x156 +1 x169 +1 x181 >= +1
 c71: +1 x1 +1 x25 +1 x37 +1 x75 +1 x95 +1 x113 +1 x133 +1 x164 +1 x169 +1 x175 +1 x196 >= +1
 c72: +1 x7 +1 x15 +1 x23 +1 x24 +1 x27 +1 x43 +1 x56 +1 x62 +1 x76 +1 x78 +1 x81 +1 x92 +1 x108 +1 x123
  +1 x124 +1 x128 +1 x132 +1 x133 +1 x138 +1 x147 +1 x159 +1 x172 +1 x173 +1 x185 +1 x188 >= +1
 c73: +1 x6 +1 x12 +1 x20 +1 x46 +1 x55 +1 x76 +1 x79 +1 x80 +1 x81 +1 x117 +1 x134 +1 x138 +1 x148 +1 x199
  >= +1
 c74: +1 x0 +1 x13 +1 x29 +1 x31 +1 x34 +1 x40 +1 x47 +1 x55 +1 x59 +1 x94 +1 x100 +1 x105 +1 x115 +1 x119
  +1 x122 +1 x130 +1 x138 +1 x150 +1 x159 +1 x162 +1 x169 +1 x170 +1 x179 +1 x190 +1 x191 >= +1
 c75: +1 x7 +1 x42 +1 x66 +1 x73 +1 x81 +1 x95 +1 x98 +1 x100 +1 x108 +1 x130 +1 x138 +1 x142 +1 x143
  +1 x152 +1 x184 >= +1
 c76: +1 x4 +1 x16 +1 x28 +1 x39 +1 x69 +1 x84 +1 x95 +1 x103 +1 x105 +1 x110 +1 x144 +1 x155 +1 x159
  +1 x164 +1 x173 >= +1
 c77: +1 x5 +1 x13 +1 x21 +1 x35 +1 x42 +1 x48 +1 x71 +1 x87 +1 x95 +1 x98 +1 x110 +1 x124 +1 x133 +1 x135
  +1 x140 +1 x142 +1 x147 +1 x175 +1 x194 >= +1
 c78: +1 x8 +1 x9 +1 x10 +1 x18 +1 x24 +1 x26 +1 x27 +1 x28 +1 x56 +1 x77 +1 x81 +1 x83 +1 x84 +1 x91
  +1 x92 +1 x93 +1 x104 +1 x106 +1 x136 +1 x147 +1 x164 +1 x177 +1 x184 >= +1
 c79: +1 x2 +1 x9 +1 x16 +1 x17 +1 x22 +1 x28 +1 x42 +1 x54 +1 x68 +1 x81 +1 x89 +1 x91 +1 x93 +1 x98
  +1 x113 +1 x127 +1 x128 +1 x130 +1 x143 +1 x152 +1 x163 +1 x195 +1 x196 >= +1
 c80: +1 x8 +1 x13 +1 x43 +1 x47 +1 x68 +1 x96 +1 x130 +1 x147 +1 x169 +1 x195 >= +1
 c81: +1 x3 +1 x49 +1 x80 +1 x83 +1 x102 +1 x112 +1 x121 +1 x123 +1 x161 +1 x172 +1 x176 +1 x178 +1 x179
  +1 x188 +1 x197 +1 x199 >= +1
 c82: +1 x3 +1 x13 +1 x29 +1 x56 +1 x65 +1 x73 +1 x89 +1 x122 +1 x136 +1 x175 +1 x197 >= +1
 c83: +1 x6 +1 x9 +1 x10 +1 x21 +1 x30 +1 x32 +1 x33 +1 x40 +1 x42 +1 x45 +1 x52 +1 x60 +1 x106 +1 x118
  +1 x132 +1 x137 +1 x140 +1 x144 +1 x157 +1 x174 +1 x190 >= +1
 c84: +1 x0 +1 x8 +1 x11 +1 x27 +1 x54 +1 x56 +1 x59 +1 x68 +1 x71 +1 x74 +1 x81 +1 x88 +1 x96 +1 x101
  +1 x105 +1 x129 +1 x133 +1 x135 +1 x140 +1 x166 +1 x177 +1 x189 +1 x190 +1 x192 >= +1
 c85: +1 x1 +1 x23 +1 x24 +1 x27 +1 x38 +1 x46 +1 x49 +1 x54 +1 x55 +1 x64 +1 x70 +1 x75 +1 x82 +1 x93
  +1 x119 +1 x126 +1 x148 +1 x154 +1 x161 +1 x182 +1 x195 >= +1
 c86: +1 x7 +1 x17 +1 x36 +1 x38 +1 x39 +1 x74 +1 x75 +1 x82 +1 x87 +1 x101 +1 x122 +1 x124 +1 x127 +1 x142
  +1 x145 +1 x148 +1 x173 +1 x186 >= +1
 c87: +1 x4 +1 x10 +1 x14 +1 x20 +1 x21 +1 x25 +1 x32 +1 x43 +1 x49 +1 x54 +1 x63 +1 x70 +1 x99 +1 x101
  +1 x103 +1 x105 +1 x119 +1 x120 +1 x123 +1 x124 +1 x132 +1 x140 +1 x142 +1 x152 +1 x168 +1 x172 +1 x184
  >= +1
 c88: +1 x6 +1 x45 +1 x46 +1 x55 +1 x64 +1 x65 +1 x74 +1 x76 +1 x100 +1 x105 +1 x117 +1 x118 +1 x128 +1 x134
  +1 x137 +1 x140 +1 x146 +1 x155 +1 x158 +1 x166 +1 x171 +1 x173 +1 x179 +1 x188 +1 x196 +1 x197 +1 x198
  >= +1
 c89: +1 x7 +1 x10 +1 x18 +1 x33 +1 x45 +1 x65 +1 x67 +1 x85 +1 x89 +1 x93 +1 x95 +1 x104 +1 x116 +1 x125
  +1 x161 +1 x165 +1 x172 +1 x186 +1 x189 +1 x196 +1 x199 >= +1
 c90: +1 x4 +1 x13 +1 x23 +1 x24 +1 x29 +1 x31 +1 x57 +1 x64 +1 x80 +1 x84 +1 x89 +1 x90 +1 x100 +1 x127
  +1 x128 +1 x135 +1 x136 +1 x137 +1 x150 +1 x153 +1 x154 +1 x155 +1 x172 +1 x179 +1 x185 >= +1
 c91: +1 x4 +1 x12 +1 x30 +1 x32 +1 x33 +1 x65 +1 x76 +1 x80 +1 x84 +1 x102 +1 x124 +1 x129 +1 x130 +1 x133
  +1 x140 +1 x145 +1 x155 +1 x162 +1 x163 +1 x165 +1 x184 +1 x188 >= +1
 c92: +1 x7 +1 x9 +1 x17 +1 x23 +1 x26 +1 x30 +1 x43 +1 x46 +1 x50 +1 x63 +1 x66 +1 x72 +1 x80 +1 x84
  +1 x93 +1 x95 +1 x109 +1 x110 +1 x162 +1 x178 +1 x186 >= +1
 c93: +1 x0 +1 x18 +1 x26 +1 x31 +1 x36 +1 x37 +1 x49 +1 x79 +1 x105 +1 x116 +1 x124 +1 x137 +1 x140 +1 x146
  +1 x163 +1 x174 +1 x177 +1 x188 +1 x197 >= +1
 c94: +1 x1 +1 x10 +1 x12 +1 x21 +1 x27 +1 x42 +1 x43 +1 x85 +1 x90 +1 x92 +1 x96 +1 x97 +1 x117 +1 x126
  +1 x137 +1 x168 +1 x172 +1 x175 +1 x178 +1 x198 >= +1
 c95: +1 x1 +1 x22 +1 x31 +1 x35 +1 x40 +1 x41 +1 x58 +1 x60 +1 x67 +1 x68 +1 x73 +1 x74 +1 x100 +1 x119
  +1 x136 +1 x143 +1 x161 +1 x196 >= +1
 c96: +1 x0 +1 x19 +1 x22 +1 x28 +1 x33 +1 x37 +1 x55 +1 x74 +1 x89 +1 x99 +1 x101 +1 x113 +1 x128 +1 x133
  +1 x147 +1 x158 +1 x164 +1 x165 +1 x169 +1 x180 +1 x190 +1 x194 >= +1
 c97: +1 x2 +1 x17 +1 x21 +1 x25 +1 x36 +1 x41 +1 x45 +1 x48 +1 x52 +1 x56 +1 x58 +1 x71 +1 x78 +1 x79
  +1 x84 +1 x94 +1 x96 +1 x97 +1 x112 +1 x115 +1 x119 +1 x131 +1 x144 +1 x145 +1 x149 +1 x159 +1 x160
  +1 x170 +1 x185 +1 x187 >= +1
 c98: +1 x4 +1 x18 +1 x23 +1 x25 +1 x26 +1 x37 +1 x50 +1 x51 +1 x64 +1 x74 +1 x86 +1 x88 +1 x100 +1 x107
  +1 x110 +1 x111 +1 x116 +1 x131 +1 x140 +1 x160 +1 x165 +1 x177 +1 x179 +1 x194 +1 x199 >= +1
 c99: +1 x2 +1 x17 +1 x19 +1 x22 +1 x30 +1 x40 +1 x41 +1 x47 +1 x58 +1 x67 +1 x104 +1 x108 +1 x118 +1 x127
  +1 x128 +1 x167 +1 x176 +1 x185 +1 x188 +1 x189 >= +1
Bounds
 0 <= x0 <= 1
 0 <= x1 <= 1
 0 <= x2 <= 1
 0 <= x3 <= 1
 0 <= x4 <= 1
 0 <= x5 <= 1
 0 <= x6 <= 1
 0 <= x7 <= 1
 0 <= x8 <= 1
 0 <= x9 <= 1
 0 <= x10 <= 1
 0 <= x11 <= 1
 0 <= x12 <= 1
 0 <= x13 <= 1
 0 <= x14 <= 1
 0 <= x15 <= 1
 0 <= x16 <= 1
 0 <= x17 <= 1
 0 <= x18 <= 1
 0 <= x19 <= 1
 0 <= x20 <= 1
 0 <= x21 <= 1
 0 <= x22 <= 1
 0 <= x23 <= 1
 0 <= x24 <= 1
 0 <= x25 <= 1
 0 <= x26 <= 1
 0 <= x27 <= 1
 0 <= x28 <= 1
 0 <= x29 <= 1
 0 <= x30 <= 1
 0 <= x31 <= 1
 0 <= x32 <= 1
 0 <= x33 <= 1
 0 <= x34 <= 1
 0 <= x35 <= 1
 0 <= x36 <= 1
 0 <= x37 <= 1
 0 <= x38 <= 1
 0 <= x39 <= 1
 0 <= x40 <= 1
 0 <= x41 <= 1
 0 <= x42 <= 1
 0 <= x43 <= 1
 0 <= x44 <= 1
 0 <= x45 <= 1
 0 <= x46 <= 1
 0 <= x47 <= 1
 0 <= x48 <= 1
 0 <= x49 <= 1
 0 <= x50 <= 1
 0 <= x51 <= 1
 0 <= x52 <= 1
 0 <= x53 <= 1
 0 <= x54 <= 1
 0 <= x55 <= 1
 0 <= x56 <= 1
 0 <= x57 <= 1
 0 <= x58 <= 1
 0 <= x59 <= 1
 0 <= x60 <= 1
 0 <= x61 <= 1
 0 <= x62 <= 1
 0 <= x63 <= 1
 0 <= x64 <= 1
 0 <= x65 <= 1
 0 <= x66 <= 1
 0 <= x67 <= 1
 0 <= x68 <= 1
 0 <= x69 <= 1
 0 <= x70 <= 1
 0 <= x71 <= 1
 0 <= x72 <= 1
 0 <= x73 <= 1
 0 <= x74 <= 1
 0 <= x75 <= 1
 0 <= x76 <= 1
 0 <= x77 <= 1
 0 <= x78 <= 1
 0 <= x79 <= 1
 0 <= x80 <= 1
 0 <= x81 <= 1
 0 <= x82 <= 1
 0 <= x83 <= 1
 0 <= x84 <= 1
 0 <= x85 <= 1
 0 <= x86 <= 1
 0 <= x87 <= 1
 0 <= x88 <= 1
 0 <= x89 <= 1
 0 <= x90 <= 1
 0 <= x91 <= 1
 0 <= x92 <= 1
 0 <= x93 <= 1
 0 <= x94 <= 1
 0 <= x95 <= 1
 0 <= x96 <= 1
 0 <= x97 <= 1
 0 <= x98 <= 1
 0 <= x99 <= 1
 0 <= x100 <= 1
 0 <= x101 <= 1
 0 <= x102 <= 1
 0 <= x103 <= 1
 0 <= x104 <= 1
 0 <= x105 <= 1
 0 <= x106 <= 1
 0 <= x107 <= 1
 0 <= x108 <= 1
 0 <= x109 <= 1
 0 <= x110 <= 1
 0 <= x111 <= 1
 0 <= x112 <= 1
 0 <= x113 <= 1
 0 <= x114 <= 1
 0 <= x115 <= 1
 0 <= x116 <= 1
 0 <= x117 <= 1
 0 <= x118 <= 1
 0 <= x119 <= 1
 0 <= x120 <= 1
 0 <= x121 <= 1
 0 <= x122 <= 1
 0 <= x123 <= 1
 0 <= x124 <= 1
 0 <= x125 <= 1
 0 <= x126 <= 1
 0 <= x127 <= 1
 0 <= x128 <= 1
 0 <= x129 <= 1
 0 <= x130 <= 1
 0 <= x131 <= 1
 0 <= x132 <= 1
 0 <= x133 <= 1
 0 <= x134 <= 1
 0 <= x135 <= 1
 0 <= x136 <= 1
 0 <= x137 <= 1
 0 <= x138 <= 1
 0 <= x139 <= 1
 0 <= x140 <= 1
 0 <= x141 <= 1
 0 <= x142 <= 1
 0 <= x143 <= 1
 0 <= x144 <= 1
 0 <= x145 <= 1
 0 <= x146 <= 1
 0 <= x147 <= 1
 0 <= x148 <= 1
 0 <= x149 <= 1
 0 <= x150 <= 1
 0 <= x151 <= 1
 0 <= x152 <= 1
 0 <= x153 <= 1
 0 <= x154 <= 1
 0 <= x155 <= 1
 0 <= x156 <= 1
 0 <= x157 <= 1
 0 <= x158 <= 1
 0 <= x159 <= 1
 0 <= x160 <= 1
 0 <= x161 <= 1
 0 <= x162 <= 1
 0 <= x163 <= 1
 0 <= x164 <= 1
 0 <= x165 <= 1
 0 <= x166 <= 1
 0 <= x167 <= 1
 0 <= x168 <= 1
 0 <= x169 <= 1
 0 <= x170 <= 1
 0 <= x171 <= 1
 0 <= x172 <= 1
 0 <= x173 <= 1
 0 <= x174 <= 1
 0 <= x175 <= 1
 0 <= x176 <= 1
 0 <= x177 <= 1
 0 <= x178 <= 1
 0 <= x179 <= 1
 0 <= x180 <= 1
 0 <= x181 <= 1
 0 <= x182 <= 1
 0 <= x183 <= 1
 0 <= x184 <= 1
 0 <= x185 <= 1
 0 <= x186 <= 1
 0 <= x187 <= 1
 0 <= x188 <= 1
 0 <= x189 <= 1
 0 <= x190 <= 1
 0 <= x191 <= 1
 0 <= x192 <= 1
 0 <= x193 <= 1
 0 <= x194 <= 1
 0 <= x195 <= 1
 0 <= x196 <= 1
 0 <= x197 <= 1
 0 <= x198 <= 1
 0 <= x199 <= 1
Binaries
 x0 x1 x2 x3 x4 x5 x6 x7 x8 x9 x10 x11 x12 x13 x14 x15 x16 x17 x18 x19 x20 x21 x22 x23 x24 x25 x26 x27
 x28 x29 x30 x31 x32 x33 x34 x35 x36 x37 x38 x39 x40 x41 x42 x43 x44 x45 x46 x47 x48 x49 x50 x51 x52 x53
 x54 x55 x56 x57 x58 x59 x60 x61 x62 x63 x64 x65 x66 x67 x68 x69 x70 x71 x72 x73 x74 x75 x76 x77 x78 x79
 x80 x81 x82 x83 x84 x85 x86 x87 x88 x89 x90 x91 x92 x93 x94 x95 x96 x97 x98 x99 x100 x101 x102 x103 x104
 x105 x106 x107 x108 x109 x110 x111 x112 x113 x114 x115 x116 x117 x118 x119 x120 x121 x122 x123 x124 x125
 x126 x127 x128 x129 x130 x131 x132 x133 x134 x135 x136 x137 x138 x139 x140 x141 x142 x143 x144 x145 x146
 x147 x148 x149 x150 x151 x152 x153 x154 x155 x156 x157 x158 x159 x160 x161 x162 x163 x164 x165 x166 x167
 x168 x169 x170 x171 x172 x173 x174 x175 x176 x177 x178 x179 x180 x181 x182 x183 x184 x185 x186 x187 x188
 x189 x190 x191 x192 x193 x194 x195 x196 x197 x198 x199
End
